77
1	2.5	1.25
2	16.25	1.25
2	2.5	3.75
3	16.25	3.75
1	12.5	13.75
3	16.25	13.75
1	12.5	31.25
3	16.25	31.25
1	12.5	48.75
3	16.25	48.75
1	12.5	66.25
3	16.25	66.25
1	2.5	76.25
3	16.25	76.25
2	2.5	78.75
2	16.25	78.75
2	27.5	1.25
2	41.25	1.25
2	27.5	3.75
3	41.25	3.75
1	37.5	13.75
3	41.25	13.75
1	37.5	31.25
3	41.25	31.25
1	37.5	48.75
2	41.25	48.75
1	37.5	66.25
2	41.25	66.25
2	27.5	76.25
3	41.25	76.25
2	27.5	78.75
2	41.25	78.75
2	52.5	1.25
2	66.25	1.25
2	52.5	3.75
3	66.25	3.75
1	62.5	13.75
3	66.25	13.75
1	62.5	31.25
3	66.25	31.25
1	62.5	48.75
3	66.25	48.75
1	62.5	66.25
3	66.25	66.25
2	52.5	76.25
3	66.25	76.25
2	52.5	78.75
2	66.25	78.75
2	77.5	1.25
3	91.25	1.25
1	77.5	3.75
3	91.25	3.75
1	87.5	13.75
3	91.25	13.75
1	87.5	31.25
3	91.25	31.25
1	87.5	48.75
3	91.25	48.75
1	87.5	66.25
3	91.25	66.25
2	77.5	76.25
4	91.25	76.25
1	77.5	78.75
2	91.25	78.75
2	102.5	1.25
2	102.5	76.25
3	110	35
2	-30	150
3	22.5	150
3	47.5	150
3	72.5	150
3	120	150
2	-30	-30
3	22.5	-30
3	47.5	-30
3	72.5	-30
2	120	-30

83
0	1
2	3
1	3
3	5
4	5
5	7
6	7
9	7
8	9
9	11
10	11
12	13
14	15
13	15
13	11
16	17
18	19
17	19
19	21
16	2
20	21
21	23
22	23
25	23
24	25
26	27
28	29
30	31
29	31
29	27
28	14
32	33
34	35
33	35
35	37
32	18
36	37
37	39
38	39
41	39
40	41
41	43
42	43
44	45
46	47
45	47
45	43
44	30
48	49
50	51
49	51
51	53
49	64
48	34
52	53
53	55
54	55
57	55
56	57
57	59
58	59
60	61
62	63
61	63
61	59
61	65
60	46
65	66
64	66
66	71
67	68
68	73
68	69
69	74
69	70
70	75
70	71
71	76
76	75
75	74
74	73
73	72
72	67
